NAME : 50-5-2-i.22521.tour
COMMENT : Length = 22521
COMMENT : Found by LKH-3 [Keld Helsgaun] Tue Dec 17 14:06:59 2024
TYPE : TOUR
DIMENSION : 60
TOUR_SECTION
1
56
2
57
3
35
43
50
36
47
37
33
49
42
45
39
53
46
55
44
48
54
52
31
32
40
41
34
51
38
58
4
59
5
7
13
22
21
25
19
24
29
15
14
18
17
12
30
16
27
28
11
26
10
9
8
23
6
20
60
-1
EOF
